(set-logic QF_BV)

(declare-const __ESBMC_ptr_obj_start_0 (_ BitVec 64))

(declare-const __ESBMC_ptr_obj_end_0 (_ BitVec 64))

(declare-const __ESBMC_ptr_obj_start_1 (_ BitVec 64))

(declare-const __ESBMC_ptr_obj_end_1 (_ BitVec 64))

(declare-const |smt_conv::__ESBMC_ptr_addr_range_0..start0| (_ BitVec 64))

(declare-const |smt_conv::__ESBMC_ptr_addr_range_0..end0| (_ BitVec 64))

(declare-const |smt_conv::__ESBMC_ptr_addr_range_1..start0| (_ BitVec 64))

(declare-const |smt_conv::__ESBMC_ptr_addr_range_1..end0| (_ BitVec 64))

(declare-const |smt_conv::smt_conv::collate_array_vals::3..start0| (_ BitVec 64))

(declare-const |smt_conv::smt_conv::collate_array_vals::3..end0| (_ BitVec 64))

(declare-const |smt_conv::smt_conv::collate_array_vals::4..start0| (_ BitVec 64))

(declare-const |smt_conv::smt_conv::collate_array_vals::4..end0| (_ BitVec 64))

(declare-const |smt_conv::smt_conv::collate_array_vals::7..start0| (_ BitVec 64))

(declare-const |smt_conv::smt_conv::collate_array_vals::7..end0| (_ BitVec 64))

(declare-const |c:@F@main::$tmp::return_value$___VERIFIER_nondet_int$1?1!0&0#1| (_ BitVec 32))

(declare-const |nondet$symex::nondet23| (_ BitVec 32))

(declare-const |c:Waldkirch.c@167@F@main@x?1!0&0#1| (_ BitVec 32))

(declare-const |goto_symex::guard?0!0&0#1| (_ BitVec 1))

(declare-const |c:Waldkirch.c@167@F@main@x?1!0&0#2| (_ BitVec 32))

(declare-const |goto_symex::guard?0!0&0#2| (_ BitVec 1))

(declare-const |c:Waldkirch.c@167@F@main@x?1!0&0#3| (_ BitVec 32))

(declare-const |goto_symex::guard?0!0&0#3| (_ BitVec 1))

(declare-const |c:Waldkirch.c@167@F@main@x?1!0&0#4| (_ BitVec 32))

(declare-const |goto_symex::guard?0!0&0#4| (_ BitVec 1))

(declare-const |c:Waldkirch.c@167@F@main@x?1!0&0#5| (_ BitVec 32))

(declare-const |goto_symex::guard?0!0&0#5| (_ BitVec 1))

(declare-const |c:Waldkirch.c@167@F@main@x?1!0&0#6| (_ BitVec 32))

(declare-const |goto_symex::guard?0!0&0#6| (_ BitVec 1))

(declare-const |c:Waldkirch.c@167@F@main@x?1!0&0#7| (_ BitVec 32))

(declare-const |goto_symex::guard?0!0&0#7| (_ BitVec 1))

(declare-const |c:Waldkirch.c@167@F@main@x?1!0&0#8| (_ BitVec 32))

(declare-const |goto_symex::guard?0!0&0#8| (_ BitVec 1))

(declare-const |c:Waldkirch.c@167@F@main@x?1!0&0#9| (_ BitVec 32))

(declare-const |goto_symex::guard?0!0&0#9| (_ BitVec 1))

(declare-const |c:Waldkirch.c@167@F@main@x?1!0&0#10| (_ BitVec 32))

(declare-const |goto_symex::guard?0!0&0#10| (_ BitVec 1))

(declare-const |c:Waldkirch.c@167@F@main@x?1!0&0#11| (_ BitVec 32))

(declare-const |goto_symex::guard?0!0&0#11| (_ BitVec 1))

(declare-const |c:Waldkirch.c@167@F@main@x?1!0&0#12| (_ BitVec 32))

(declare-const |goto_symex::guard?0!0&0#12| (_ BitVec 1))

(declare-const |c:Waldkirch.c@167@F@main@x?1!0&0#13| (_ BitVec 32))

(declare-const |goto_symex::guard?0!0&0#13| (_ BitVec 1))

(declare-const |c:Waldkirch.c@167@F@main@x?1!0&0#14| (_ BitVec 32))

(declare-const |goto_symex::guard?0!0&0#14| (_ BitVec 1))

(declare-const |c:Waldkirch.c@167@F@main@x?1!0&0#15| (_ BitVec 32))

(declare-const |goto_symex::guard?0!0&0#15| (_ BitVec 1))

(declare-const |c:Waldkirch.c@167@F@main@x?1!0&0#16| (_ BitVec 32))

(declare-const |goto_symex::guard?0!0&0#16| (_ BitVec 1))

(declare-const |c:Waldkirch.c@167@F@main@x?1!0&0#17| (_ BitVec 32))

(declare-const |goto_symex::guard?0!0&0#17| (_ BitVec 1))

(declare-const |c:Waldkirch.c@167@F@main@x?1!0&0#18| (_ BitVec 32))

(declare-const |goto_symex::guard?0!0&0#18| (_ BitVec 1))

(declare-const |c:Waldkirch.c@167@F@main@x?1!0&0#19| (_ BitVec 32))

(declare-const |goto_symex::guard?0!0&0#19| (_ BitVec 1))

(declare-const |c:Waldkirch.c@167@F@main@x?1!0&0#20| (_ BitVec 32))

(declare-const |goto_symex::guard?0!0&0#20| (_ BitVec 1))

(declare-const |c:Waldkirch.c@167@F@main@x?1!0&0#21| (_ BitVec 32))

(declare-const |goto_symex::guard?0!0&0#21| (_ BitVec 1))

(declare-const |c:Waldkirch.c@167@F@main@x?1!0&0#22| (_ BitVec 32))

(declare-const |goto_symex::guard?0!0&0#22| (_ BitVec 1))

(declare-const |c:Waldkirch.c@167@F@main@x?1!0&0#23| (_ BitVec 32))

(declare-const |goto_symex::guard?0!0&0#23| (_ BitVec 1))

(declare-const |c:Waldkirch.c@167@F@main@x?1!0&0#24| (_ BitVec 32))

(declare-const |goto_symex::guard?0!0&0#24| (_ BitVec 1))

(declare-const |execution_statet::guard_exec?0!0| (_ BitVec 1))

(assert 

 (= __ESBMC_ptr_obj_start_0 #b0000000000000000000000000000000000000000000000000000000000000000))

(assert 

 (= #b0000000000000000000000000000000000000000000000000000000000000000 __ESBMC_ptr_obj_end_0))

(assert 

 (= __ESBMC_ptr_obj_start_1 #b0000000000000000000000000000000000000000000000000000000000000001))

(assert 

 (= #b1111111111111111111111111111111111111111111111111111111111111111 __ESBMC_ptr_obj_end_1))

(assert 

 (= __ESBMC_ptr_obj_end_0 |smt_conv::__ESBMC_ptr_addr_range_0..end0|))

(assert 

 (= __ESBMC_ptr_obj_start_0 |smt_conv::__ESBMC_ptr_addr_range_0..start0|))

(assert 

 (= __ESBMC_ptr_obj_end_1 |smt_conv::__ESBMC_ptr_addr_range_1..end0|))

(assert 

 (= __ESBMC_ptr_obj_start_1 |smt_conv::__ESBMC_ptr_addr_range_1..start0|))

(assert 

 (= |smt_conv::smt_conv::collate_array_vals::3..end0| |smt_conv::smt_conv::collate_array_vals::4..end0|))

(assert 

 (= |smt_conv::smt_conv::collate_array_vals::3..start0| |smt_conv::smt_conv::collate_array_vals::4..start0|))

(assert 

 (= __ESBMC_ptr_obj_end_0 |smt_conv::smt_conv::collate_array_vals::7..end0|))

(assert 

 (= __ESBMC_ptr_obj_start_0 |smt_conv::smt_conv::collate_array_vals::7..start0|))

(assert 

 (= |c:@F@main::$tmp::return_value$___VERIFIER_nondet_int$1?1!0&0#1| |nondet$symex::nondet23|))

(assert 

 (= |c:@F@main::$tmp::return_value$___VERIFIER_nondet_int$1?1!0&0#1| |c:Waldkirch.c@167@F@main@x?1!0&0#1|))

(assert 

 (= |goto_symex::guard?0!0&0#1| 

  (bvnot 

   (ite 

    (bvslt |c:Waldkirch.c@167@F@main@x?1!0&0#1| #b00000000000000000000000000000000) #b1 #b0))))

(assert 

 (= |c:Waldkirch.c@167@F@main@x?1!0&0#2| 

  (bvadd #b11111111111111111111111111111111 |c:Waldkirch.c@167@F@main@x?1!0&0#1|)))

(assert 

 (= |goto_symex::guard?0!0&0#2| 

  (bvnot 

   (ite 

    (bvslt |c:Waldkirch.c@167@F@main@x?1!0&0#2| #b00000000000000000000000000000000) #b1 #b0))))

(assert 

 (= |c:Waldkirch.c@167@F@main@x?1!0&0#3| 

  (bvadd #b11111111111111111111111111111111 |c:Waldkirch.c@167@F@main@x?1!0&0#2|)))

(assert 

 (= |goto_symex::guard?0!0&0#3| 

  (bvnot 

   (ite 

    (bvslt |c:Waldkirch.c@167@F@main@x?1!0&0#3| #b00000000000000000000000000000000) #b1 #b0))))

(assert 

 (= |c:Waldkirch.c@167@F@main@x?1!0&0#4| 

  (bvadd #b11111111111111111111111111111111 |c:Waldkirch.c@167@F@main@x?1!0&0#3|)))

(assert 

 (= |goto_symex::guard?0!0&0#4| 

  (bvnot 

   (ite 

    (bvslt |c:Waldkirch.c@167@F@main@x?1!0&0#4| #b00000000000000000000000000000000) #b1 #b0))))

(assert 

 (= |c:Waldkirch.c@167@F@main@x?1!0&0#5| 

  (bvadd #b11111111111111111111111111111111 |c:Waldkirch.c@167@F@main@x?1!0&0#4|)))

(assert 

 (= |goto_symex::guard?0!0&0#5| 

  (bvnot 

   (ite 

    (bvslt |c:Waldkirch.c@167@F@main@x?1!0&0#5| #b00000000000000000000000000000000) #b1 #b0))))

(assert 

 (= |c:Waldkirch.c@167@F@main@x?1!0&0#6| 

  (bvadd #b11111111111111111111111111111111 |c:Waldkirch.c@167@F@main@x?1!0&0#5|)))

(assert 

 (= |goto_symex::guard?0!0&0#6| 

  (bvnot 

   (ite 

    (bvslt |c:Waldkirch.c@167@F@main@x?1!0&0#6| #b00000000000000000000000000000000) #b1 #b0))))

(assert 

 (= |c:Waldkirch.c@167@F@main@x?1!0&0#7| 

  (bvadd #b11111111111111111111111111111111 |c:Waldkirch.c@167@F@main@x?1!0&0#6|)))

(assert 

 (= |goto_symex::guard?0!0&0#7| 

  (bvnot 

   (ite 

    (bvslt |c:Waldkirch.c@167@F@main@x?1!0&0#7| #b00000000000000000000000000000000) #b1 #b0))))

(assert 

 (= |c:Waldkirch.c@167@F@main@x?1!0&0#8| 

  (bvadd #b11111111111111111111111111111111 |c:Waldkirch.c@167@F@main@x?1!0&0#7|)))

(assert 

 (= |goto_symex::guard?0!0&0#8| 

  (bvnot 

   (ite 

    (bvslt |c:Waldkirch.c@167@F@main@x?1!0&0#8| #b00000000000000000000000000000000) #b1 #b0))))

(assert 

 (= |c:Waldkirch.c@167@F@main@x?1!0&0#9| 

  (bvadd #b11111111111111111111111111111111 |c:Waldkirch.c@167@F@main@x?1!0&0#8|)))

(assert 

 (= |goto_symex::guard?0!0&0#9| 

  (bvnot 

   (ite 

    (bvslt |c:Waldkirch.c@167@F@main@x?1!0&0#9| #b00000000000000000000000000000000) #b1 #b0))))

(assert 

 (= |c:Waldkirch.c@167@F@main@x?1!0&0#10| 

  (bvadd #b11111111111111111111111111111111 |c:Waldkirch.c@167@F@main@x?1!0&0#9|)))

(assert 

 (= |goto_symex::guard?0!0&0#10| 

  (bvnot 

   (ite 

    (bvslt |c:Waldkirch.c@167@F@main@x?1!0&0#10| #b00000000000000000000000000000000) #b1 #b0))))

(assert 

 (= |c:Waldkirch.c@167@F@main@x?1!0&0#11| 

  (bvadd #b11111111111111111111111111111111 |c:Waldkirch.c@167@F@main@x?1!0&0#10|)))

(assert 

 (= |goto_symex::guard?0!0&0#11| 

  (bvnot 

   (ite 

    (bvslt |c:Waldkirch.c@167@F@main@x?1!0&0#11| #b00000000000000000000000000000000) #b1 #b0))))

(assert 

 (= |c:Waldkirch.c@167@F@main@x?1!0&0#12| 

  (bvadd #b11111111111111111111111111111111 |c:Waldkirch.c@167@F@main@x?1!0&0#11|)))

(assert 

 (= |goto_symex::guard?0!0&0#12| 

  (bvnot 

   (ite 

    (bvslt |c:Waldkirch.c@167@F@main@x?1!0&0#12| #b00000000000000000000000000000000) #b1 #b0))))

(assert 

 (= |c:Waldkirch.c@167@F@main@x?1!0&0#13| 

  (bvadd #b11111111111111111111111111111111 |c:Waldkirch.c@167@F@main@x?1!0&0#12|)))

(assert 

 (= |goto_symex::guard?0!0&0#13| 

  (bvnot 

   (ite 

    (bvslt |c:Waldkirch.c@167@F@main@x?1!0&0#13| #b00000000000000000000000000000000) #b1 #b0))))

(assert 

 (= |c:Waldkirch.c@167@F@main@x?1!0&0#14| 

  (bvadd #b11111111111111111111111111111111 |c:Waldkirch.c@167@F@main@x?1!0&0#13|)))

(assert 

 (= |goto_symex::guard?0!0&0#14| 

  (bvnot 

   (ite 

    (bvslt |c:Waldkirch.c@167@F@main@x?1!0&0#14| #b00000000000000000000000000000000) #b1 #b0))))

(assert 

 (= |c:Waldkirch.c@167@F@main@x?1!0&0#15| 

  (bvadd #b11111111111111111111111111111111 |c:Waldkirch.c@167@F@main@x?1!0&0#14|)))

(assert 

 (= |goto_symex::guard?0!0&0#15| 

  (bvnot 

   (ite 

    (bvslt |c:Waldkirch.c@167@F@main@x?1!0&0#15| #b00000000000000000000000000000000) #b1 #b0))))

(assert 

 (= |c:Waldkirch.c@167@F@main@x?1!0&0#16| 

  (bvadd #b11111111111111111111111111111111 |c:Waldkirch.c@167@F@main@x?1!0&0#15|)))

(assert 

 (= |goto_symex::guard?0!0&0#16| 

  (bvnot 

   (ite 

    (bvslt |c:Waldkirch.c@167@F@main@x?1!0&0#16| #b00000000000000000000000000000000) #b1 #b0))))

(assert 

 (= |c:Waldkirch.c@167@F@main@x?1!0&0#17| 

  (bvadd #b11111111111111111111111111111111 |c:Waldkirch.c@167@F@main@x?1!0&0#16|)))

(assert 

 (= |goto_symex::guard?0!0&0#17| 

  (bvnot 

   (ite 

    (bvslt |c:Waldkirch.c@167@F@main@x?1!0&0#17| #b00000000000000000000000000000000) #b1 #b0))))

(assert 

 (= |c:Waldkirch.c@167@F@main@x?1!0&0#18| 

  (bvadd #b11111111111111111111111111111111 |c:Waldkirch.c@167@F@main@x?1!0&0#17|)))

(assert 

 (= |goto_symex::guard?0!0&0#18| 

  (bvnot 

   (ite 

    (bvslt |c:Waldkirch.c@167@F@main@x?1!0&0#18| #b00000000000000000000000000000000) #b1 #b0))))

(assert 

 (= |c:Waldkirch.c@167@F@main@x?1!0&0#19| 

  (bvadd #b11111111111111111111111111111111 |c:Waldkirch.c@167@F@main@x?1!0&0#18|)))

(assert 

 (= |goto_symex::guard?0!0&0#19| 

  (bvnot 

   (ite 

    (bvslt |c:Waldkirch.c@167@F@main@x?1!0&0#19| #b00000000000000000000000000000000) #b1 #b0))))

(assert 

 (= |c:Waldkirch.c@167@F@main@x?1!0&0#20| 

  (bvadd #b11111111111111111111111111111111 |c:Waldkirch.c@167@F@main@x?1!0&0#19|)))

(assert 

 (= |goto_symex::guard?0!0&0#20| 

  (bvnot 

   (ite 

    (bvslt |c:Waldkirch.c@167@F@main@x?1!0&0#20| #b00000000000000000000000000000000) #b1 #b0))))

(assert 

 (= |c:Waldkirch.c@167@F@main@x?1!0&0#21| 

  (bvadd #b11111111111111111111111111111111 |c:Waldkirch.c@167@F@main@x?1!0&0#20|)))

(assert 

 (= |goto_symex::guard?0!0&0#21| 

  (bvnot 

   (ite 

    (bvslt |c:Waldkirch.c@167@F@main@x?1!0&0#21| #b00000000000000000000000000000000) #b1 #b0))))

(assert 

 (= |c:Waldkirch.c@167@F@main@x?1!0&0#22| 

  (bvadd #b11111111111111111111111111111111 |c:Waldkirch.c@167@F@main@x?1!0&0#21|)))

(assert 

 (= |goto_symex::guard?0!0&0#22| 

  (bvnot 

   (ite 

    (bvslt |c:Waldkirch.c@167@F@main@x?1!0&0#22| #b00000000000000000000000000000000) #b1 #b0))))

(assert 

 (= |c:Waldkirch.c@167@F@main@x?1!0&0#23| 

  (bvadd #b11111111111111111111111111111111 |c:Waldkirch.c@167@F@main@x?1!0&0#22|)))

(assert 

 (= |goto_symex::guard?0!0&0#23| 

  (bvnot 

   (ite 

    (bvslt |c:Waldkirch.c@167@F@main@x?1!0&0#23| #b00000000000000000000000000000000) #b1 #b0))))

(assert 

 (= |c:Waldkirch.c@167@F@main@x?1!0&0#24| 

  (bvadd #b11111111111111111111111111111111 |c:Waldkirch.c@167@F@main@x?1!0&0#23|)))

(assert 

 (= |goto_symex::guard?0!0&0#24| 

  (bvnot 

   (ite 

    (bvslt |c:Waldkirch.c@167@F@main@x?1!0&0#24| #b00000000000000000000000000000000) #b1 #b0))))

(assert (= |execution_statet::guard_exec?0!0| #b1))

(assert (= |goto_symex::guard?0!0&0#24| #b1))

(assert (= |goto_symex::guard?0!0&0#23| #b1))

(assert (= |goto_symex::guard?0!0&0#22| #b1))

(assert (= |goto_symex::guard?0!0&0#21| #b1))

(assert (= |goto_symex::guard?0!0&0#20| #b1))

(assert (= |goto_symex::guard?0!0&0#19| #b1))

(assert (= |goto_symex::guard?0!0&0#18| #b1))

(assert (= |goto_symex::guard?0!0&0#17| #b1))

(assert (= |goto_symex::guard?0!0&0#16| #b1))

(assert (= |goto_symex::guard?0!0&0#15| #b1))

(assert (= |goto_symex::guard?0!0&0#14| #b1))

(assert (= |goto_symex::guard?0!0&0#13| #b1))

(assert (= |goto_symex::guard?0!0&0#12| #b1))

(assert (= |goto_symex::guard?0!0&0#11| #b1))

(assert (= |goto_symex::guard?0!0&0#10| #b1))

(assert (= |goto_symex::guard?0!0&0#9| #b1))

(assert (= |goto_symex::guard?0!0&0#8| #b1))

(assert (= |goto_symex::guard?0!0&0#7| #b1))

(assert (= |goto_symex::guard?0!0&0#6| #b1))

(assert (= |goto_symex::guard?0!0&0#5| #b1))

(assert (= |goto_symex::guard?0!0&0#4| #b1))

(assert (= |goto_symex::guard?0!0&0#3| #b1))

(assert (= |goto_symex::guard?0!0&0#2| #b1))

(assert (= |goto_symex::guard?0!0&0#1| #b1))

(check-sat)

(exit)
